33D32945 STP File, STP Format Version 1.0

SECTION Comment
Name "lin06-10s"
Creator "Bernd Zey"
Problem "Stochastic Steiner Tree Problem"
# Stochastic Steiner tree problem instance, base file: lin06.stp
# weight-scaling off
# parameters:
# distribution=equal
# selectRootRandomly=0
# probabilityTerminal=33
# probabilityNonTerminal=5
# 2nd stage edge-costs in [1.1000c_e, 1.3000c_e]
END

SECTION Graph
Nodes 165
Edges 274
Scenarios 10
Root 25
E 1 38 122
E 1 49 146
E 2 73 64
E 2 96 50
E 2 26 10
E 3 131 118
E 3 117 62
E 3 54 28
E 4 125 62
E 4 69 32
E 4 23 74
E 4 36 40
E 5 83 87
E 5 98 9
E 6 54 62
E 6 117 28
E 6 114 74
E 6 100 26
E 7 135 28
E 7 20 40
E 7 124 90
E 7 60 12
E 8 17 146
E 8 52 46
E 8 116 102
E 9 34 132
E 9 41 28
E 9 45 28
E 9 71 70
E 10 146 74
E 10 12 2
E 10 126 118
E 11 56 36
E 11 79 40
E 12 36 74
E 12 23 40
E 13 111 10
E 13 160 14
E 14 154 158
E 14 31 36
E 14 133 32
E 15 102 32
E 15 16 46
E 15 128 16
E 16 51 32
E 16 21 132
E 16 74 16
E 17 93 28
E 17 34 46
E 18 29 130
E 18 141 64
E 18 79 8
E 19 91 2
E 19 61 8
E 19 149 26
E 20 71 28
E 20 45 70
E 20 118 90
E 21 138 32
E 21 39 28
E 21 42 16
E 22 86 46
E 22 89 84
E 22 35 132
E 22 136 112
E 23 32 32
E 24 80 28
E 24 68 24
E 24 163 158
E 24 57 6
E 25 47 51
E 25 100 11
E 26 29 64
E 26 141 130
E 27 31 122
E 27 150 54
E 27 53 32
E 28 143 2
E 28 148 22
E 28 151 8
E 29 158 22
E 29 73 10
E 30 33 17
E 30 156 123
E 31 88 32
E 32 69 74
E 33 96 16
E 33 90 44
E 34 136 28
E 34 121 70
E 35 50 84
E 35 104 28
E 35 41 112
E 36 64 62
E 36 146 2
E 37 46 6
E 37 91 26
E 37 149 2
E 37 157 53
E 38 43 14
E 38 58 76
E 39 154 32
E 39 133 158
E 39 68 16
E 40 148 20
E 40 96 140
E 40 156 16
E 40 115 8
E 41 136 132
E 41 119 28
E 42 74 132
E 42 68 28
E 42 80 24
E 43 81 98
E 43 127 76
E 44 57 158
E 44 163 6
E 44 123 36
E 44 147 84
E 45 119 28
E 45 110 90
E 46 66 64
E 46 159 26
E 46 107 76
E 47 54 26
E 47 72 158
E 48 142 98
E 48 161 28
E 48 130 14
E 48 127 34
E 49 129 122
E 49 108 158
E 50 89 132
E 50 80 6
E 50 57 28
E 51 102 46
E 51 138 132
E 52 121 76
E 52 105 132
E 52 103 102
E 53 88 122
E 53 155 54
E 53 152 16
E 54 90 98
E 55 103 132
E 55 105 102
E 55 165 164
E 56 124 46
E 56 63 12
E 57 104 84
E 58 127 14
E 58 130 34
E 59 128 24
E 59 85 46
E 59 120 6
E 60 65 28
E 60 97 90
E 61 145 2
E 61 151 28
E 61 101 35
E 62 70 64
E 62 67 28
E 62 145 6
E 62 159 8
E 63 97 46
E 63 77 16
E 64 153 114
E 64 125 40
E 64 131 2
E 65 135 12
E 65 105 24
E 66 139 26
E 66 132 76
E 67 79 64
E 67 141 8
E 67 87 6
E 68 109 158
E 69 150 132
E 70 76 72
E 70 79 28
E 70 139 8
E 71 121 132
E 71 135 40
E 72 156 98
E 72 129 14
E 72 161 8
E 73 98 90
E 74 128 46
E 74 85 24
E 75 160 18
E 75 122 104
E 75 83 6
E 76 77 4
E 76 94 8
E 77 82 8
E 78 119 90
E 78 113 62
E 78 110 28
E 80 85 132
E 81 95 33
E 81 137 76
E 82 105 164
E 82 94 4
E 82 165 102
E 83 123 18
E 84 99 99
E 84 90 16
E 84 96 44
E 85 89 6
E 86 120 84
E 86 93 112
E 87 143 8
E 87 151 2
E 87 145 28
E 88 133 36
E 88 111 16
E 89 120 46
E 91 159 6
E 91 145 8
E 92 161 14
E 92 129 8
E 92 130 28
E 93 136 46
E 94 139 72
E 94 162 102
E 95 106 27
E 97 124 12
E 99 134 47
E 100 108 74
E 101 144 7
E 103 116 46
E 104 147 158
E 104 119 112
E 106 107 6
E 106 157 23
E 107 132 64
E 108 114 26
E 109 133 16
E 109 111 36
E 109 163 24
E 110 118 70
E 111 152 122
E 112 115 16
E 112 156 8
E 112 161 98
E 112 142 28
E 113 164 6
E 114 126 28
E 115 151 42
E 115 144 28
E 117 146 118
E 117 126 74
E 118 124 40
E 122 152 24
E 122 153 10
E 123 160 6
E 125 155 70
E 127 137 98
E 131 134 114
E 131 146 62
E 132 140 21
E 134 153 2
E 137 149 58
E 137 142 34
E 138 154 28
E 139 159 64
E 140 162 51
E 141 143 6
E 142 144 16
E 147 164 112
E 150 155 32
E 158 164 32
E 160 163 36
E 162 165 4
END

SECTION StochasticProbabilities
SP 0.14460 0.14460 0.096400 0.096400 0.060300 0.084400 0.096400 0.048100 0.12040 0.10840
END

SECTION StochasticWeights
SE 142 155 139 137 153 148 141 146 137 136 
SE 163 174 187 169 186 161 175 181 167 164 
SE 77 82 71 71 75 71 73 76 76 74 
SE 61 57 56 60 60 56 56 62 56 59 
SE 12 13 12 13 12 12 13 13 11 13 
SE 131 140 143 132 140 142 135 135 148 143 
SE 69 69 72 71 75 74 69 72 77 80 
SE 31 36 36 35 33 33 36 32 31 31 
SE 76 77 74 69 78 75 70 70 75 79 
SE 39 37 41 39 36 36 37 36 36 38 
SE 89 87 96 84 88 90 94 95 95 95 
SE 45 52 45 48 46 48 46 52 45 44 
SE 101 100 112 101 107 113 96 110 106 107 
SE 10 11 10 11 10 10 11 10 10 10 
SE 74 77 76 72 72 76 69 79 71 79 
SE 36 36 34 35 34 36 31 36 34 31 
SE 82 95 82 92 89 89 82 93 86 90 
SE 29 33 31 30 33 29 31 30 30 33 
SE 32 32 35 31 31 36 31 31 31 34 
SE 51 47 46 50 46 46 46 50 51 51 
SE 112 116 115 100 110 115 115 115 100 103 
SE 14 15 14 15 14 14 14 15 14 15 
SE 164 179 178 187 169 181 178 167 177 182 
SE 51 57 52 53 52 53 57 59 59 54 
SE 122 113 117 121 125 127 128 123 122 124 
SE 157 167 155 170 149 146 164 156 163 164 
SE 33 32 34 31 33 34 35 34 34 35 
SE 32 34 31 34 31 31 36 31 33 32 
SE 86 83 90 78 81 78 80 91 84 87 
SE 87 86 86 94 90 91 82 91 96 94 
SE 3 3 3 3 3 3 3 3 3 3 
SE 139 138 140 153 152 151 136 152 136 130 
SE 42 44 40 45 40 44 41 46 45 46 
SE 49 46 52 52 47 47 44 48 46 48 
SE 85 82 89 83 96 84 89 84 85 87 
SE 44 50 46 49 49 51 50 52 44 47 
SE 13 11 13 11 12 13 12 11 11 13 
SE 17 16 16 16 16 17 18 17 16 16 
SE 177 178 203 185 186 195 191 175 180 190 
SE 45 41 45 45 44 40 42 45 44 40 
SE 36 38 37 39 38 41 40 37 38 36 
SE 38 41 41 39 40 38 41 37 40 37 
SE 53 54 55 54 57 52 54 53 58 56 
SE 18 18 20 20 20 19 19 18 18 19 
SE 36 41 36 39 40 37 36 37 39 38 
SE 157 164 164 170 147 170 146 160 153 152 
SE 18 18 19 19 18 20 18 19 20 20 
SE 31 32 31 31 31 35 32 32 35 36 
SE 51 57 52 54 52 57 57 58 55 53 
SE 147 153 159 157 143 165 148 169 155 168 
SE 83 82 82 77 79 76 82 83 74 75 
SE 9 9 9 9 9 9 9 9 10 9 
SE 3 3 3 3 3 3 3 3 3 3 
SE 9 10 10 10 10 9 10 9 10 9 
SE 30 31 31 33 31 33 29 29 30 32 
SE 33 33 35 36 32 36 31 33 33 35 
SE 83 86 78 87 87 85 78 82 77 85 
SE 103 112 111 115 116 110 117 103 113 102 
SE 39 41 40 37 37 39 41 37 41 40 
SE 35 34 31 33 33 31 35 32 36 36 
SE 19 18 18 19 19 20 18 20 18 20 
SE 56 53 55 51 59 54 59 58 55 51 
SE 96 98 105 94 97 107 98 104 93 93 
SE 148 153 157 167 167 170 162 149 154 171 
SE 126 128 134 145 143 138 124 124 131 124 
SE 36 38 41 37 39 37 38 36 39 41 
SE 35 35 35 36 31 31 35 32 32 33 
SE 31 29 30 29 30 28 31 30 27 27 
SE 190 176 186 203 179 175 194 180 186 198 
SE 7 7 7 7 7 7 7 7 7 7 
SE 60 57 57 62 66 63 58 57 58 57 
SE 13 13 13 14 13 13 14 14 13 13 
SE 79 73 82 71 75 71 76 73 82 77 
SE 150 169 146 164 154 166 167 151 157 156 
SE 158 158 157 145 147 155 155 139 145 157 
SE 67 63 60 69 63 69 70 65 66 66 
SE 41 39 41 37 36 39 36 40 36 38 
SE 3 3 3 3 3 3 3 3 3 3 
SE 25 27 25 25 27 28 25 25 28 26 
SE 10 9 9 9 9 9 10 10 10 9 
SE 26 25 28 26 25 25 28 28 25 27 
SE 13 11 13 13 13 13 11 12 13 11 
SE 19 20 19 22 19 22 19 19 19 19 
SE 157 155 142 145 144 147 147 151 147 159 
SE 40 38 38 36 36 37 41 39 41 37 
SE 92 87 86 88 82 92 88 91 96 83 
SE 18 18 18 19 20 18 20 18 19 18 
SE 53 49 49 53 53 52 49 49 57 54 
SE 31 32 32 35 31 32 34 35 36 35 
SE 83 84 89 81 79 87 87 83 83 79 
SE 105 109 102 96 107 93 100 104 100 97 
SE 34 31 34 36 31 35 32 33 32 33 
SE 139 144 144 133 142 124 144 138 129 144 
SE 72 78 78 79 75 71 77 77 74 77 
SE 3 3 3 3 3 3 3 3 3 3 
SE 7 7 7 7 7 7 7 7 7 7 
SE 32 31 29 33 30 29 33 33 31 31 
SE 3 3 3 3 3 3 3 3 3 3 
SE 63 59 62 59 61 65 62 67 63 66 
SE 16 17 17 16 16 16 17 16 16 16 
SE 88 88 87 98 88 84 97 96 87 91 
SE 36 40 38 39 38 37 36 39 37 36 
SE 182 178 188 199 177 203 175 203 175 197 
SE 19 19 20 18 19 19 19 18 19 18 
SE 26 26 26 23 26 22 25 23 23 25 
SE 163 154 167 179 177 173 164 172 177 157 
SE 19 19 20 19 20 18 18 19 18 18 
SE 10 9 9 10 9 10 9 9 9 10 
SE 152 159 165 168 162 165 164 152 153 146 
SE 33 31 31 33 32 34 35 33 34 31 
SE 156 170 152 156 160 148 148 155 155 157 
SE 35 33 35 31 34 34 31 33 33 32 
SE 29 29 27 28 27 28 28 29 29 28 
SE 116 125 119 120 115 122 127 115 117 108 
SE 92 96 88 93 96 96 92 84 95 86 
SE 181 200 188 196 205 177 179 186 200 198 
SE 7 7 7 7 7 7 7 7 7 7 
SE 40 45 41 43 40 44 43 40 41 46 
SE 94 108 102 93 100 100 93 106 95 93 
SE 35 31 31 31 34 31 33 34 31 31 
SE 103 105 110 115 100 111 101 114 115 100 
SE 81 79 74 72 77 83 76 78 73 78 
SE 30 33 29 29 31 31 30 29 32 32 
SE 85 89 91 86 90 89 84 94 85 96 
SE 30 33 33 33 29 30 31 32 32 31 
SE 185 186 177 174 200 196 181 175 180 187 
SE 113 110 123 120 111 118 120 123 116 118 
SE 36 31 31 33 31 33 32 33 31 34 
SE 17 17 18 16 16 16 16 16 17 18 
SE 43 38 42 38 41 39 38 40 38 42 
SE 145 152 141 149 135 154 148 150 136 142 
SE 188 198 174 202 182 194 205 179 180 179 
SE 167 165 147 168 165 171 163 158 157 169 
SE 7 7 7 7 7 7 7 7 7 7 
SE 32 34 31 33 33 35 31 35 36 34 
SE 53 54 55 51 51 59 53 52 51 54 
SE 156 166 162 152 156 154 161 164 152 146 
SE 84 90 93 97 85 85 93 85 97 96 
SE 159 171 147 147 146 168 151 151 168 149 
SE 132 124 125 119 123 126 120 120 124 124 
SE 146 143 145 150 144 135 152 146 135 135 
SE 60 60 69 67 60 68 63 60 60 69 
SE 19 19 20 18 19 20 18 20 18 19 
SE 121 119 116 117 116 114 120 121 123 119 
SE 159 170 170 161 157 158 170 157 167 164 
SE 119 114 122 113 113 119 129 124 117 116 
SE 200 197 189 211 210 203 187 206 193 187 
SE 56 57 55 53 58 58 57 59 59 52 
SE 15 14 15 14 14 15 14 15 14 14 
SE 102 96 93 103 101 97 107 104 104 108 
SE 16 16 16 17 16 16 16 17 16 17 
SE 43 39 41 38 38 40 44 44 44 42 
SE 27 29 27 30 30 27 31 27 30 29 
SE 55 55 53 51 59 54 56 57 59 54 
SE 7 7 7 7 7 7 7 7 7 7 
SE 34 31 34 33 35 31 36 34 32 36 
SE 105 106 111 117 105 100 106 108 116 103 
SE 3 3 3 3 3 3 3 3 3 3 
SE 31 32 34 34 35 34 36 36 31 33 
SE 41 45 44 39 43 43 43 42 40 39 
SE 83 76 74 71 80 80 80 82 83 76 
SE 33 34 32 33 31 31 31 32 36 31 
SE 7 7 7 7 7 7 7 7 7 7 
SE 9 9 9 9 9 9 10 9 9 9 
SE 53 52 57 53 51 58 51 52 51 56 
SE 18 20 18 19 19 18 18 19 18 18 
SE 142 136 129 136 135 143 132 147 144 137 
SE 50 46 46 45 48 46 44 46 46 50 
SE 3 3 3 3 3 3 3 3 3 3 
SE 14 15 14 15 14 14 15 14 14 14 
SE 31 27 31 27 27 28 27 28 27 30 
SE 31 30 31 29 30 29 31 32 32 32 
SE 91 96 94 90 87 94 85 85 89 96 
SE 75 73 71 79 75 75 74 78 77 78 
SE 9 9 9 9 9 9 10 9 10 9 
SE 7 7 7 7 7 7 7 7 7 7 
SE 181 176 203 200 174 185 181 182 180 175 
SE 149 157 167 154 146 151 153 162 162 146 
SE 88 86 92 91 90 80 89 80 87 83 
SE 33 32 33 34 31 31 35 32 31 35 
SE 9 10 9 9 10 9 10 9 9 10 
SE 157 146 167 146 164 170 170 153 152 158 
SE 47 50 47 44 52 50 51 44 52 52 
SE 118 118 124 124 122 111 124 109 114 127 
SE 16 16 16 17 17 18 17 16 16 18 
SE 9 9 10 9 10 9 9 9 10 10 
SE 105 109 116 101 102 109 114 107 105 112 
SE 51 54 51 58 56 51 51 56 51 51 
SE 28 27 30 27 29 27 27 27 27 28 
SE 23 20 20 20 20 22 20 21 20 23 
SE 116 135 115 133 123 129 126 126 134 129 
SE 7 7 7 7 7 7 7 7 7 7 
SE 5 5 5 5 5 5 5 5 5 5 
SE 9 9 9 9 10 9 9 9 9 10 
SE 10 9 10 10 9 10 9 9 9 9 
SE 101 106 111 105 102 100 107 104 100 114 
SE 76 78 69 71 75 72 74 69 73 74 
SE 32 31 31 36 33 34 36 31 32 36 
SE 147 150 146 170 165 168 161 150 169 160 
SE 38 37 39 40 40 41 38 42 38 41 
SE 87 95 89 91 85 87 90 92 88 92 
SE 209 205 196 204 210 199 181 201 183 195 
SE 5 5 5 5 5 5 5 5 5 5 
SE 113 118 113 113 115 131 126 121 118 129 
SE 20 20 22 23 20 20 23 23 20 20 
SE 121 109 127 124 111 125 125 119 115 109 
SE 18 20 19 20 18 19 18 18 20 19 
SE 54 52 55 56 51 49 49 49 57 53 
SE 7 7 7 7 7 7 7 7 7 7 
SE 105 107 101 101 99 99 102 106 106 106 
SE 144 143 131 129 124 128 134 131 125 139 
SE 9 9 10 9 9 9 9 9 9 9 
SE 3 3 3 3 3 3 3 3 3 3 
SE 31 31 36 32 35 36 34 36 31 31 
SE 40 42 46 42 45 41 40 41 46 40 
SE 18 18 19 20 18 19 18 20 19 18 
SE 51 59 58 57 56 58 58 51 54 59 
SE 7 7 7 7 7 7 7 7 7 7 
SE 9 10 9 10 10 10 10 10 9 9 
SE 18 16 16 18 18 16 16 16 17 16 
SE 9 9 9 9 10 10 9 10 9 10 
SE 31 32 32 34 32 33 36 33 32 34 
SE 51 51 55 59 54 52 54 52 57 59 
SE 81 85 83 82 90 87 91 91 91 85 
SE 131 131 113 114 120 125 117 117 117 119 
SE 32 33 34 30 33 33 30 30 31 34 
SE 14 14 14 15 14 15 14 14 14 15 
SE 53 59 54 61 54 58 61 54 52 58 
SE 83 91 96 95 93 93 85 95 89 90 
SE 9 8 8 8 8 8 8 8 9 8 
SE 56 58 59 57 57 51 51 52 52 59 
SE 186 174 177 197 184 195 174 200 199 202 
SE 142 141 135 130 127 124 133 144 127 129 
SE 7 7 7 7 7 7 7 7 7 7 
SE 27 26 28 26 29 26 29 27 28 29 
SE 82 76 82 83 77 83 72 81 82 79 
SE 32 29 33 32 31 30 29 32 29 30 
SE 18 20 18 19 18 18 20 19 18 19 
SE 40 41 40 44 40 42 40 42 40 41 
SE 28 27 28 27 31 30 30 28 28 27 
SE 88 89 87 84 86 78 77 79 81 78 
SE 154 135 155 144 138 157 148 144 137 150 
SE 18 20 18 18 18 18 18 20 18 18 
SE 10 10 9 9 9 10 10 9 10 9 
SE 108 111 122 108 114 127 125 117 108 119 
SE 32 35 34 34 34 31 34 34 36 32 
SE 7 7 7 7 7 7 7 7 7 7 
SE 35 33 31 34 36 33 35 32 31 36 
SE 48 48 48 48 53 50 49 53 47 51 
SE 36 35 31 33 32 35 31 33 33 35 
SE 141 130 145 134 150 131 134 147 139 153 
SE 95 82 94 85 91 88 90 92 92 89 
SE 47 52 51 48 46 47 46 47 45 48 
SE 27 29 27 30 28 31 27 31 27 29 
SE 13 12 12 12 12 11 12 13 11 13 
SE 7 7 7 7 7 7 7 7 7 7 
SE 82 87 80 88 88 87 84 82 88 82 
SE 121 127 115 113 115 112 126 113 124 122 
SE 148 131 134 129 127 143 130 142 128 137 
SE 70 78 73 73 73 74 69 79 80 77 
SE 27 26 24 26 24 26 25 25 24 24 
SE 3 3 3 3 3 3 3 3 3 3 
SE 71 69 66 74 64 66 71 65 71 70 
SE 43 40 44 40 42 42 43 38 42 44 
SE 31 34 35 31 33 31 32 36 35 34 
SE 74 74 78 73 81 78 83 72 72 81 
SE 59 59 64 58 63 62 60 62 64 63 
SE 7 7 7 7 7 7 7 7 7 7 
SE 18 20 18 20 18 20 20 20 18 20 
SE 140 125 139 143 136 126 143 140 140 128 
SE 38 39 39 39 36 41 41 41 39 36 
SE 40 38 40 40 37 40 39 36 38 36 
SE 40 44 42 42 42 44 42 45 40 40 
SE 5 5 5 5 5 5 5 5 5 5 
END

SECTION StochasticTerminals
ST 1 0 0 0 0 0 0 0 0 0 0 
ST 2 0 0 0 0 0 0 0 0 0 0 
ST 3 0 0 0 0 0 0 0 1 0 0 
ST 4 0 0 0 0 0 0 0 0 0 0 
ST 5 0 0 1 0 0 1 0 1 0 0 
ST 6 0 0 0 0 0 0 1 0 0 0 
ST 7 0 0 0 0 0 0 0 0 0 0 
ST 8 0 0 0 0 0 0 0 0 0 0 
ST 9 0 0 0 0 0 0 0 1 0 0 
ST 10 0 0 1 0 0 0 0 0 0 0 
ST 11 1 1 1 0 0 0 0 0 0 1 
ST 12 0 0 0 0 0 0 0 0 0 0 
ST 13 1 1 0 0 0 0 0 0 0 0 
ST 14 0 0 0 0 0 1 0 0 0 0 
ST 15 0 0 0 0 0 0 0 0 0 0 
ST 16 0 0 0 0 0 0 0 0 0 0 
ST 17 0 0 0 0 0 0 0 0 0 0 
ST 18 0 0 0 0 0 0 0 0 0 0 
ST 19 0 1 0 0 0 0 0 0 0 0 
ST 20 0 0 0 0 0 0 0 0 0 0 
ST 21 0 1 0 0 0 0 0 0 0 0 
ST 22 0 0 0 0 0 0 0 0 0 0 
ST 23 0 0 0 0 0 0 0 0 0 1 
ST 24 0 0 0 0 0 0 0 0 0 0 
ST 25 1 1 1 1 1 1 1 1 1 1 
ST 26 0 0 0 0 0 0 0 0 0 0 
ST 27 0 0 0 0 0 0 0 0 0 0 
ST 28 0 0 1 0 0 0 0 0 0 0 
ST 29 0 0 0 0 1 0 0 0 0 0 
ST 30 1 0 0 0 1 0 0 0 0 0 
ST 31 0 0 0 0 0 0 0 0 0 0 
ST 32 0 0 0 0 0 0 0 1 0 0 
ST 33 0 0 0 0 0 0 0 0 0 0 
ST 34 0 0 0 0 0 0 0 1 0 0 
ST 35 0 0 0 1 1 0 0 1 0 0 
ST 36 0 0 0 0 0 0 0 0 0 0 
ST 37 0 0 0 0 0 0 0 0 0 1 
ST 38 0 0 0 0 0 0 0 0 0 0 
ST 39 0 0 0 0 0 0 0 0 0 0 
ST 40 0 0 0 0 0 0 0 0 0 0 
ST 41 0 0 0 0 0 0 0 0 0 0 
ST 42 0 0 0 0 0 0 0 0 0 0 
ST 43 0 0 0 1 0 0 0 0 0 0 
ST 44 0 0 0 0 0 0 0 0 0 0 
ST 45 0 0 0 0 0 1 0 0 0 0 
ST 46 0 0 0 0 0 0 0 0 0 0 
ST 47 0 0 0 1 0 0 0 0 0 0 
ST 48 0 0 0 0 0 0 0 0 0 0 
ST 49 0 0 0 0 0 0 0 0 0 0 
ST 50 0 0 0 0 0 0 0 0 0 0 
ST 51 0 0 0 0 0 0 0 0 0 0 
ST 52 0 0 0 0 0 0 0 0 0 0 
ST 53 0 0 0 0 0 0 0 0 0 0 
ST 54 0 0 0 1 0 1 0 1 0 0 
ST 55 0 0 0 0 0 1 0 1 0 0 
ST 56 0 0 0 0 1 0 0 0 0 0 
ST 57 0 0 0 0 0 0 0 0 0 0 
ST 58 0 0 0 0 0 0 0 0 0 0 
ST 59 0 0 0 0 0 0 0 0 0 0 
ST 60 0 0 0 0 0 0 0 0 0 0 
ST 61 0 0 0 0 0 0 0 0 0 0 
ST 62 0 0 0 0 0 0 0 0 0 0 
ST 63 0 0 0 0 0 0 0 0 0 0 
ST 64 0 0 0 0 0 0 0 0 0 0 
ST 65 0 1 0 0 0 0 0 0 0 0 
ST 66 0 0 0 0 0 0 0 0 0 0 
ST 67 0 0 0 0 0 0 0 0 0 0 
ST 68 0 0 0 0 0 0 0 0 0 0 
ST 69 0 0 0 0 0 0 0 0 0 0 
ST 70 0 0 0 0 0 0 0 0 0 0 
ST 71 0 0 0 0 0 0 0 0 0 0 
ST 72 0 0 0 0 0 0 0 0 0 0 
ST 73 0 0 0 0 0 0 0 0 0 0 
ST 74 0 0 0 0 0 0 0 0 0 0 
ST 75 0 0 0 0 1 0 0 0 0 0 
ST 76 0 0 0 0 1 0 0 1 0 1 
ST 77 0 0 0 0 0 0 0 0 0 0 
ST 78 0 0 0 1 0 0 1 0 0 0 
ST 79 0 0 0 0 0 0 0 0 0 0 
ST 80 0 0 0 0 0 0 0 0 0 0 
ST 81 0 0 0 0 0 0 0 0 0 0 
ST 82 0 0 0 0 0 0 0 0 0 0 
ST 83 0 0 0 0 0 0 0 0 0 0 
ST 84 0 0 0 0 0 0 0 0 0 0 
ST 85 0 0 0 0 0 0 0 0 1 0 
ST 86 0 0 0 0 0 0 0 0 0 0 
ST 87 0 0 0 0 0 0 0 0 1 0 
ST 88 0 0 0 0 0 0 0 0 0 0 
ST 89 0 0 0 0 0 0 1 0 0 0 
ST 90 0 0 0 0 0 0 0 0 0 1 
ST 91 0 0 1 0 0 0 0 0 0 1 
ST 92 1 0 0 0 0 0 0 0 0 0 
ST 93 0 0 1 0 0 0 0 0 0 0 
ST 94 0 0 0 0 0 0 0 0 0 0 
ST 95 0 0 1 1 1 1 1 1 0 1 
ST 96 0 0 0 0 0 0 0 1 0 0 
ST 97 0 0 0 0 0 0 0 0 0 0 
ST 98 0 1 0 0 1 1 1 0 0 0 
ST 99 0 0 0 0 1 0 0 0 0 1 
ST 100 0 0 0 1 0 0 0 0 0 0 
ST 101 0 0 0 1 1 0 1 0 0 0 
ST 102 0 0 0 1 0 0 0 0 0 0 
ST 103 0 0 0 0 0 0 0 0 0 0 
ST 104 0 0 0 0 0 0 0 0 0 0 
ST 105 0 0 0 0 0 0 0 0 0 0 
ST 106 0 0 0 0 0 0 0 0 1 0 
ST 107 0 0 0 1 0 1 0 0 0 0 
ST 108 0 0 1 0 0 0 0 0 0 0 
ST 109 0 0 0 0 0 0 0 1 0 0 
ST 110 0 0 0 0 0 0 0 0 0 0 
ST 111 0 0 0 0 0 0 0 0 0 0 
ST 112 0 0 0 0 0 0 0 0 0 0 
ST 113 1 0 1 0 0 0 1 0 0 1 
ST 114 0 0 0 0 0 0 0 0 0 0 
ST 115 0 0 0 0 0 0 0 0 0 0 
ST 116 0 0 0 0 0 0 0 0 1 0 
ST 117 0 0 0 0 0 1 0 0 0 0 
ST 118 0 0 0 0 0 0 0 0 0 0 
ST 119 0 0 0 1 0 0 0 0 0 0 
ST 120 0 0 0 0 0 0 0 0 0 1 
ST 121 0 0 0 0 0 0 0 0 0 0 
ST 122 0 0 0 0 0 0 0 0 0 0 
ST 123 0 0 0 0 0 0 0 0 0 0 
ST 124 0 0 0 0 0 0 0 1 0 0 
ST 125 0 0 0 0 0 0 0 0 0 0 
ST 126 0 0 0 0 0 0 0 0 0 0 
ST 127 0 0 0 0 1 0 0 1 0 0 
ST 128 0 0 0 0 0 0 0 0 0 0 
ST 129 0 0 0 0 0 0 0 0 0 0 
ST 130 0 0 0 0 0 0 0 0 0 0 
ST 131 1 0 0 0 1 0 0 0 0 0 
ST 132 0 0 0 0 0 0 0 0 0 0 
ST 133 0 0 0 0 0 0 0 0 0 1 
ST 134 0 0 0 0 0 0 0 0 0 0 
ST 135 0 0 0 0 0 0 0 1 0 0 
ST 136 0 0 0 0 0 0 0 0 0 0 
ST 137 0 0 0 0 0 0 0 0 0 0 
ST 138 0 0 0 0 1 0 0 0 0 0 
ST 139 0 0 0 0 0 0 0 0 0 1 
ST 140 0 1 0 0 0 0 1 1 1 0 
ST 141 0 0 0 0 0 1 1 0 0 0 
ST 142 0 0 0 0 0 0 0 0 0 0 
ST 143 0 0 0 0 0 0 0 0 0 0 
ST 144 0 0 1 0 0 0 1 0 0 0 
ST 145 0 0 0 0 0 0 0 0 0 0 
ST 146 0 0 0 0 0 0 0 0 0 0 
ST 147 0 0 0 0 0 0 0 0 0 0 
ST 148 1 0 1 0 1 0 1 1 0 0 
ST 149 0 0 0 0 0 0 0 0 0 0 
ST 150 0 0 0 0 0 0 0 0 0 0 
ST 151 0 0 0 0 0 0 0 0 0 1 
ST 152 0 0 0 0 0 1 1 0 0 0 
ST 153 0 0 0 0 0 0 0 0 0 0 
ST 154 0 0 0 0 0 0 0 0 1 0 
ST 155 0 0 0 0 0 0 0 0 0 0 
ST 156 0 0 0 0 0 0 0 0 0 0 
ST 157 1 0 0 1 0 1 0 1 1 0 
ST 158 0 0 1 0 0 0 0 1 0 1 
ST 159 0 0 0 0 0 0 0 0 0 0 
ST 160 0 0 0 0 0 0 0 0 0 0 
ST 161 0 0 0 0 0 0 0 0 0 0 
ST 162 1 0 0 0 0 1 0 0 0 0 
ST 163 0 0 0 1 0 0 0 0 0 0 
ST 164 0 0 0 0 0 0 0 0 0 0 
ST 165 0 0 0 0 0 0 0 0 0 0 
END


SECTION Coordinates
DD 1 0 0
DD 2 286 300
DD 3 358 136
DD 4 518 74
DD 5 385 364
DD 6 330 74
DD 7 138 576
DD 8 102 782
DD 9 248 604
DD 10 476 0
DD 11 138 404
DD 12 478 0
DD 13 492 382
DD 14 550 418
DD 15 518 782
DD 16 518 736
DD 17 248 782
DD 18 146 364
DD 19 102 292
DD 20 178 576
DD 21 518 604
DD 22 388 736
DD 23 518 0
DD 24 478 576
DD 25 304 85
DD 26 276 300
DD 27 550 260
DD 28 146 292
DD 29 276 364
DD 30 269 234
DD 31 550 382
DD 32 550 0
DD 33 286 234
DD 34 248 736
DD 35 388 604
DD 36 478 74
DD 37 76 294
DD 38 0 122
DD 39 518 576
DD 40 146 250
DD 41 276 604
DD 42 502 604
DD 43 0 136
DD 44 472 418
DD 45 248 576
DD 46 76 300
DD 47 304 136
DD 48 110 136
DD 49 146 0
DD 50 472 604
DD 51 550 736
DD 52 102 736
DD 53 518 260
DD 54 330 136
DD 55 0 604
DD 56 138 440
DD 57 472 576
DD 58 76 122
DD 59 478 782
DD 60 126 576
DD 61 110 292
DD 62 110 300
DD 63 126 440
DD 64 478 136
DD 65 126 604
DD 66 76 364
DD 67 138 300
DD 68 502 576
DD 69 550 74
DD 70 110 364
DD 71 178 604
DD 72 146 136
DD 73 286 364
DD 74 502 736
DD 75 478 364
DD 76 110 436
DD 77 110 440
DD 78 276 486
DD 79 138 364
DD 80 478 604
DD 81 0 234
DD 82 102 440
DD 83 472 364
DD 84 330 250
DD 85 478 736
DD 86 388 782
DD 87 138 294
DD 88 518 382
DD 89 472 736
DD 90 330 234
DD 91 102 294
DD 92 138 122
DD 93 276 782
DD 94 102 436
DD 95 0 267
DD 96 286 250
DD 97 126 486
DD 98 376 364
DD 99 429 250
DD 100 304 74
DD 101 110 257
DD 102 550 782
DD 103 0 736
DD 104 388 576
DD 105 102 604
DD 106 0 294
DD 107 0 300
DD 108 304 0
DD 109 502 418
DD 110 248 486
DD 111 502 382
DD 112 138 234
DD 113 276 424
DD 114 330 0
DD 115 138 250
DD 116 0 782
DD 117 358 74
DD 118 178 486
DD 119 276 576
DD 120 472 782
DD 121 178 736
DD 122 478 260
DD 123 472 382
DD 124 138 486
DD 125 518 136
DD 126 358 0
DD 127 76 136
DD 128 502 782
DD 129 146 122
DD 130 110 122
DD 131 476 136
DD 132 0 364
DD 133 518 418
DD 134 476 250
DD 135 138 604
DD 136 276 736
DD 137 76 234
DD 138 550 604
DD 139 102 364
DD 140 0 385
DD 141 146 300
DD 142 110 234
DD 143 146 294
DD 144 110 250
DD 145 110 294
DD 146 476 74
DD 147 388 418
DD 148 146 270
DD 149 76 292
DD 150 550 206
DD 151 138 292
DD 152 502 260
DD 153 478 250
DD 154 550 576
DD 155 518 206
DD 156 146 234
DD 157 23 294
DD 158 276 386
DD 159 102 300
DD 160 478 382
DD 161 138 136
DD 162 0 436
DD 163 478 418
DD 164 276 418
DD 165 0 440
END

EOF
